Gurobi Optimizer version 9.1.2 build v9.1.2rc0 (linux64)
Thread count: 36 physical cores, 72 logical processors, using up to 32 threads
Optimize a model with 12 rows, 57 columns and 590 nonzeros
Model fingerprint: 0xf32eec78
Model has 47 quadratic constraints
Coefficient statistics:
  Matrix range     [2e-05, 3e+00]
  QMatrix range    [1e+00, 1e+00]
  QLMatrix range   [1e+00, 1e+00]
  Objective range  [8e-03, 7e-01]
  Bounds range     [1e+00, 1e+00]
  RHS range        [1e+00, 1e+00]
Presolve removed 9 rows and 0 columns

Continuous model is non-convex -- solving as a MIP.

Presolve removed 9 rows and 0 columns
Presolve time: 0.00s
Presolved: 189 rows, 57 columns, 443 nonzeros
Presolved model has 47 bilinear constraint(s)
Variable types: 57 continuous, 0 integer (0 binary)

Root relaxation: objective -1.743721e+00, 44 iterations, 0.00 seconds

    Nodes    |    Current Node    |     Objective Bounds      |     Work
 Expl Unexpl |  Obj  Depth IntInf | Incumbent    BestBd   Gap | It/Node Time

     0     0   -1.74372    0   38          -   -1.74372      -     -    0s
H    0     0                       0.6147548   -1.74372   384%     -    0s
     0     0   -1.64739    0    1    0.61475   -1.64739   368%     -    0s
H    0     0                      -1.6450460   -1.64739  0.14%     -    0s
     0     0     cutoff    0        -1.64505   -1.64505  0.00%     -    0s

Cutting planes:
  RLT: 25
  BQP: 3

Explored 1 nodes (76 simplex iterations) in 0.01 seconds
Thread count was 32 (of 72 available processors)

Solution count 2: -1.64505 0.614755 
No other solutions better than -1.64505

Optimal solution found (tolerance 1.00e-04)
Best objective -1.645045978473e+00, best bound -1.645045978473e+00, gap 0.0000%

User-callback calls 78, time in user-callback 0.00 sec
Gurobi Optimizer version 9.1.2 build v9.1.2rc0 (linux64)
Thread count: 36 physical cores, 72 logical processors, using up to 32 threads
Optimize a model with 24 rows, 120 columns and 2480 nonzeros
Model fingerprint: 0x934a5207
Model has 100 quadratic constraints
Coefficient statistics:
  Matrix range     [8e-06, 4e+00]
  QMatrix range    [1e+00, 1e+00]
  QLMatrix range   [1e+00, 1e+00]
  Objective range  [6e-03, 1e+00]
  Bounds range     [1e+00, 1e+00]
  RHS range        [1e+00, 1e+00]
Presolve removed 17 rows and 0 columns

Continuous model is non-convex -- solving as a MIP.

Presolve removed 17 rows and 0 columns
Presolve time: 0.00s
Presolved: 407 rows, 120 columns, 1232 nonzeros
Presolved model has 100 bilinear constraint(s)
Variable types: 120 continuous, 0 integer (0 binary)

Root relaxation: objective -8.896378e+00, 123 iterations, 0.00 seconds

    Nodes    |    Current Node    |     Objective Bounds      |     Work
 Expl Unexpl |  Obj  Depth IntInf | Incumbent    BestBd   Gap | It/Node Time

     0     0   -8.89638    0  100          -   -8.89638      -     -    0s
H    0     0                       1.3222131   -8.89638   773%     -    0s
     0     0   -6.15395    0   90    1.32221   -6.15395   565%     -    0s
H    0     0                       0.4906735   -6.15395  1354%     -    0s
     0     0   -6.14507    0   90    0.49067   -6.14507  1352%     -    0s
     0     0   -5.49635    0   90    0.49067   -5.49635  1220%     -    0s
H    0     0                      -0.6897076   -5.49635   697%     -    0s
     0     0   -5.43860    0   90   -0.68971   -5.43860   689%     -    0s
     0     0   -5.23270    0  100   -0.68971   -5.23270   659%     -    0s
     0     0   -5.21888    0  100   -0.68971   -5.21888   657%     -    0s
     0     0   -5.16831    0  100   -0.68971   -5.16831   649%     -    0s
     0     0   -5.16406    0  100   -0.68971   -5.16406   649%     -    0s
     0     0   -5.15151    0   90   -0.68971   -5.15151   647%     -    0s
     0     0   -5.14334    0  100   -0.68971   -5.14334   646%     -    0s
     0     0   -5.13526    0  100   -0.68971   -5.13526   645%     -    0s
     0     0   -5.13315    0  100   -0.68971   -5.13315   644%     -    0s
     0     0   -5.13197    0  100   -0.68971   -5.13197   644%     -    0s
     0     0   -5.13073    0  100   -0.68971   -5.13073   644%     -    0s
     0     0   -5.13034    0  100   -0.68971   -5.13034   644%     -    0s
H    0     0                      -1.7207215   -5.13034   198%     -    0s
H    0     0                      -1.8910131   -5.13034   171%     -    0s
     0     2   -5.13034    0  100   -1.89101   -5.13034   171%     -    0s
*  863  1000              18      -3.8950917   -4.56123  17.1%  26.9    0s
* 1811  1214              29      -3.8990357   -4.45065  14.1%  22.3    0s
* 1845  1431              31      -3.9556046   -4.45065  12.5%  22.1    0s
* 1847  1431              32      -3.9570662   -4.45065  12.5%  22.0    0s
* 1911  1431              28      -4.1105900   -4.45065  8.27%  21.8    0s
* 1912  1431              29      -4.1105941   -4.45065  8.27%  21.8    0s
* 2362  1542              23      -4.1111864   -4.29941  4.58%  19.8    0s
* 2363  1542              23      -4.1112826   -4.29941  4.58%  19.8    0s
* 2448  1542              33      -4.1231125   -4.29941  4.28%  19.5    0s
* 2454  1542              21      -4.1540558   -4.29941  3.50%  19.4    0s
* 2563  1542              21      -4.1886596   -4.29941  2.64%  18.9    0s
* 2755  1250              27      -4.1994166   -4.23207  0.78%  18.3    0s
* 2801  1250              21      -4.2238734   -4.22938  0.13%  18.1    0s
* 3232   656              34      -4.2239524   -4.22938  0.13%  16.0    0s
* 3233   656              34      -4.2247892   -4.22938  0.11%  16.0    0s
* 3235   656              34      -4.2248673   -4.22938  0.11%  16.0    0s
* 3346   656              23      -4.2257492   -4.22938  0.09%  15.5    0s
* 3348   656              24      -4.2257646   -4.22938  0.09%  15.5    0s
* 3354   656              24      -4.2259236   -4.22938  0.08%  15.5    0s
* 3901    31              22      -4.2287137   -4.22873  0.00%  13.4    0s
* 3903    31              23      -4.2287256   -4.22873  0.00%  13.4    0s
* 3904    31              23      -4.2287285   -4.22873  0.00%  13.4    0s

Cutting planes:
  RLT: 79
  BQP: 14
  PSD: 22

Explored 4559 nodes (52820 simplex iterations) in 0.75 seconds
Thread count was 32 (of 72 available processors)

Solution count 10: -4.22873 -4.22871 -4.22592 ... -4.19942
No other solutions better than -4.22873

Optimal solution found (tolerance 1.00e-04)
Best objective -4.228728537755e+00, best bound -4.228728537755e+00, gap 0.0000%

User-callback calls 9447, time in user-callback 0.00 sec



objective value: -4.228728537755411
objective bound: -4.228728537755411
x_opt: [0.0, 1.0, 1.0, 0.0, 1.0, 0.30642411886344684, 0.0, 0.0, 1.0, 0.3733156590823114, 0.0, 0.0, 0.0, 1.0, 0.0, 0.8366672502090251, 1.0, 0.957790352051116, 0.0, 1.0]
GUROBI solution time: 0.7457919120788574




